; Ω-落尘AGI 格码同构定理 Z3 反例验证 v4.1.0 - 白皮书v2.0 第3.3节
; 验证：CDL格结构与编码同构（格运算↔码运算保持结构）

(set-logic QF_NIA)

(declare-const M Int)
(declare-const x Int)
(declare-const y Int)
(declare-const z Int)

(assert (> M 0))
(assert (>= x 0))
(assert (<= x M))
(assert (>= y 0))
(assert (<= y M))
(assert (>= z 0))
(assert (<= z M))

; 格运算
(define-fun join ((a Int) (b Int)) Int (ite (>= a b) a b))
(define-fun meet ((a Int) (b Int)) Int (ite (<= a b) a b))

; 编码运算（与格运算同构）
(define-fun codeJoin ((a Int) (b Int)) Int (ite (>= a b) a b))
(define-fun codeMeet ((a Int) (b Int)) Int (ite (<= a b) a b))

; Δ 算子
(define-fun delta ((a Int) (b Int)) Int (ite (>= a b) (- a b) 0))

; 编码映射 φ: 格 → 码（恒等映射）
(define-fun phi ((a Int)) Int a)

; ============================================================
; 验证1：φ 是单射
(push)
(assert (and (= (phi x) (phi y)) (not (= x y))))
(check-sat)  ; 期望 unsat
(pop)

; ============================================================
; 验证2：φ 保持 join 运算
(push)
(assert (not (= (phi (join x y)) (codeJoin (phi x) (phi y)))))
(check-sat)  ; 期望 unsat
(pop)

; ============================================================
; 验证3：φ 保持 meet 运算
(push)
(assert (not (= (phi (meet x y)) (codeMeet (phi x) (phi y)))))
(check-sat)  ; 期望 unsat
(pop)

; ============================================================
; 验证4：φ 保持 Δ 运算
(push)
(assert (not (= (phi (delta x y)) (delta (phi x) (phi y)))))
(check-sat)  ; 期望 unsat
(pop)

; ============================================================
; 验证5：格运算交换律
(push)
(assert (not (= (join x y) (join y x))))
(check-sat)  ; 期望 unsat
(pop)

(push)
(assert (not (= (meet x y) (meet y x))))
(check-sat)  ; 期望 unsat
(pop)

; ============================================================
; 验证6：格运算幂等律
(push)
(assert (not (= (join x x) x)))
(check-sat)  ; 期望 unsat
(pop)

(push)
(assert (not (= (meet x x) x)))
(check-sat)  ; 期望 unsat
(pop)

; ============================================================
; 验证7：吸收律
(push)
(assert (not (= (join x (meet x y)) x)))
(check-sat)  ; 期望 unsat
(pop)

(push)
(assert (not (= (meet x (join x y)) x)))
(check-sat)  ; 期望 unsat
(pop)

; ============================================================
; 验证8：编码运算保持交换律
(push)
(assert (not (= (codeJoin x y) (codeJoin y x))))
(check-sat)  ; 期望 unsat
(pop)

(push)
(assert (not (= (codeMeet x y) (codeMeet y x))))
(check-sat)  ; 期望 unsat
(pop)

(exit)
